c Source: inf-power (1-hop neighborhood of node 2618)
c n=13, m=19, circuit_rank=7
c Augmented with 3 edges for Eulerian condition
p sp 13
e 8 10
e 5 8
e 3 6
e 2 3
e 8 9
e 1 8
e 3 8
e 8 13
e 7 8
e 5 7
e 6 8
e 4 8
e 8 12
e 2 8
e 8 11
e 3 4
e 1 9
e 10 11
e 12 13
